h -3 -4 0
h 2 4 0
1 3 0
1 -3 0
h 2 -3 0
h -6 1 0
h -41 6 23 0
h 44 -2 0
1 -44 0
h 4 46 0
h 46 -4 0
1 -46 0
h -41 -23 0
h 41 23 0
h -3 -23 0
h 3 23 0
h 51 -8 0
h 8 51 0
1 -51 0
h 27 52 0
h -27 52 0
1 -52 0
h 18 -4 0
h 4 -18 0
h 1 6 0
h -6 -1 0
